\ENCODING=ISO-8859-1
\Problem name: IloCplex

Minimize
 obj1: 0 x5 + 0 x7 + 0 x8 + 0 x10 + 0 x12 + 0 x16 + 0 x17 + 0 x19 + 0 x21
       + 0 x25 + 0 x26 + 0 x28 + 0 x30 + 0 x34 + 0 x35 + 0 x37 + 0 x39 + 0 x40
       + x42 + 0 x46 + 0 x47 + 0 x48 + 0 x49 + 0 x52 + 0 x53 + 0 x54 + 0 x55
       + 0 x58 + 0 x59 + 0 x60 + 0 x61 + 0 x66 + 0 x67 + 0 x68 + 0 x69 + 0 x72
       + 0 x73 + 0 x74 + 0 x75 + 0 x80 + 0 x81 + 0 x82 + 0 x83
Subject To
 c1:  x1 - x2 <= 0
 c2:  x3 - x4 <= 0
 c3:  x1 - x2  = -2
 c4:  x3 - x4  = -2
 c5:  x6 + x14 >= 1
 c6:  x15 + x23 >= 1
 c7:  x24 + x32 >= 1
 c8:  x33 + x41 >= 1
 c9:  - x3 + x42 >= 3
 c10: x9 - x43 <= 0
 c11: x11 - x44 <= 0
 c12: x9 + 2 x13 - x43  = 0
 c13: x11 - 2 x13 - x44  = -2
 c14: x45 + x50 >= 1
 c15: x51 + x56 >= 1
 c16: x57 + x62 >= 1
 c17: - x11 + 2 x13 + x42 >= 3
 c18: x18 - x63 <= 0
 c19: x20 - x64 <= 0
 c20: x18 + 2 x22 - x63  = 0
 c21: x20 - 2 x22 - x64  = -2
 c22: x65 + x70 >= 1
 c23: x71 + x76 >= 1
 c24: - x20 + 2 x22 + x42 >= 3
 c25: x27 - x77 <= 0
 c26: x29 - x78 <= 0
 c27: x27 + 2 x31 - x77  = 0
 c28: x29 - 2 x31 - x78  = -2
 c29: x79 + x84 >= 1
 c30: - x29 + 2 x31 + x42 >= 3
 c31: x36 - x85 <= 0
 c32: x38 - x86 <= 0
 c33: x36 - x85  = 0
 c34: x38 - x86  = 0
 c35: - x38 + x42 >= 1
 i1:  x8 = 1 <-> x1 - x9 =< -3
 i2:  x10 = 1 <-> x3 - x11 =< -3
 i3:  x7 = 1 <-> x8 + x10 => 1
 i4:  x12 = 1 <-> x9 + 2 x13 - x1 =< -1
 i5:  x6 = 1 <-> x7 + x12 => 1
 i6:  x14 = 1 <-> x11 - 2 x13 - x3 =< -3
 i7:  x17 = 1 <-> x1 - x18 =< -3
 i8:  x19 = 1 <-> x3 - x20 =< -3
 i9:  x16 = 1 <-> x17 + x19 => 1
 i10: x21 = 1 <-> x18 + 2 x22 - x1 =< -1
 i11: x15 = 1 <-> x16 + x21 => 1
 i12: x23 = 1 <-> x20 - 2 x22 - x3 =< -3
 i13: x26 = 1 <-> x1 - x27 =< -3
 i14: x28 = 1 <-> x3 - x29 =< -3
 i15: x25 = 1 <-> x26 + x28 => 1
 i16: x30 = 1 <-> x27 + 2 x31 - x1 =< -1
 i17: x24 = 1 <-> x25 + x30 => 1
 i18: x32 = 1 <-> x29 - 2 x31 - x3 =< -3
 i19: x35 = 1 <-> x1 - x36 =< -3
 i20: x37 = 1 <-> x3 - x38 =< -3
 i21: x34 = 1 <-> x35 + x37 => 1
 i22: x39 = 1 <-> x36 - x1 =< -1
 i23: x33 = 1 <-> x34 + x39 => 1
 i24: x41 = 1 <-> x38 - x3 =< -1
 i25: x47 = 1 <-> x9 + 2 x13 - x18 =< -1
 i26: x48 = 1 <-> x11 - 2 x13 - x20 =< -3
 i27: x46 = 1 <-> x47 + x48 => 1
 i28: x49 = 1 <-> x18 + 2 x22 - x9 =< -1
 i29: x45 = 1 <-> x46 + x49 => 1
 i30: x50 = 1 <-> x20 - 2 x22 - x11 =< -3
 i31: x53 = 1 <-> x9 + 2 x13 - x27 =< -1
 i32: x54 = 1 <-> x11 - 2 x13 - x29 =< -3
 i33: x52 = 1 <-> x53 + x54 => 1
 i34: x55 = 1 <-> x27 + 2 x31 - x9 =< -1
 i35: x51 = 1 <-> x52 + x55 => 1
 i36: x56 = 1 <-> x29 - 2 x31 - x11 =< -3
 i37: x59 = 1 <-> x9 + 2 x13 - x36 =< -1
 i38: x60 = 1 <-> x11 - 2 x13 - x38 =< -3
 i39: x58 = 1 <-> x59 + x60 => 1
 i40: x61 = 1 <-> x36 - x9 =< -1
 i41: x57 = 1 <-> x58 + x61 => 1
 i42: x62 = 1 <-> x38 - x11 =< -1
 i43: x67 = 1 <-> x18 + 2 x22 - x27 =< -1
 i44: x68 = 1 <-> x20 - 2 x22 - x29 =< -3
 i45: x66 = 1 <-> x67 + x68 => 1
 i46: x69 = 1 <-> x27 + 2 x31 - x18 =< -1
 i47: x65 = 1 <-> x66 + x69 => 1
 i48: x70 = 1 <-> x29 - 2 x31 - x20 =< -3
 i49: x73 = 1 <-> x18 + 2 x22 - x36 =< -1
 i50: x74 = 1 <-> x20 - 2 x22 - x38 =< -3
 i51: x72 = 1 <-> x73 + x74 => 1
 i52: x75 = 1 <-> x36 - x18 =< -1
 i53: x71 = 1 <-> x72 + x75 => 1
 i54: x76 = 1 <-> x38 - x20 =< -1
 i55: x81 = 1 <-> x27 + 2 x31 - x36 =< -1
 i56: x82 = 1 <-> x29 - 2 x31 - x38 =< -3
 i57: x80 = 1 <-> x81 + x82 => 1
 i58: x83 = 1 <-> x36 - x27 =< -1
 i59: x79 = 1 <-> x80 + x83 => 1
 i60: x84 = 1 <-> x38 - x29 =< -1
Bounds
      x1 = 0
 0 <= x2 <= 3
      x3 = 0
 0 <= x4 <= 12
 0 <= x5 <= 1
 0 <= x6 <= 1
 0 <= x7 <= 1
 0 <= x8 <= 1
 0 <= x9 <= 3
 0 <= x10 <= 1
 0 <= x11 <= 12
 0 <= x12 <= 1
 0 <= x13 <= 1
 0 <= x14 <= 1
 0 <= x15 <= 1
 0 <= x16 <= 1
 0 <= x17 <= 1
 0 <= x18 <= 3
 0 <= x19 <= 1
 0 <= x20 <= 12
 0 <= x21 <= 1
 0 <= x22 <= 1
 0 <= x23 <= 1
 0 <= x24 <= 1
 0 <= x25 <= 1
 0 <= x26 <= 1
 0 <= x27 <= 3
 0 <= x28 <= 1
 0 <= x29 <= 12
 0 <= x30 <= 1
 0 <= x31 <= 1
 0 <= x32 <= 1
 0 <= x33 <= 1
 0 <= x34 <= 1
 0 <= x35 <= 1
 0 <= x36 <= 3
 0 <= x37 <= 1
 0 <= x38 <= 12
 0 <= x39 <= 1
 0 <= x40 <= 1
 0 <= x41 <= 1
 1 <= x42 <= 13
 0 <= x43 <= 3
 0 <= x44 <= 12
 0 <= x45 <= 1
 0 <= x46 <= 1
 0 <= x47 <= 1
 0 <= x48 <= 1
 0 <= x49 <= 1
 0 <= x50 <= 1
 0 <= x51 <= 1
 0 <= x52 <= 1
 0 <= x53 <= 1
 0 <= x54 <= 1
 0 <= x55 <= 1
 0 <= x56 <= 1
 0 <= x57 <= 1
 0 <= x58 <= 1
 0 <= x59 <= 1
 0 <= x60 <= 1
 0 <= x61 <= 1
 0 <= x62 <= 1
 0 <= x63 <= 3
 0 <= x64 <= 12
 0 <= x65 <= 1
 0 <= x66 <= 1
 0 <= x67 <= 1
 0 <= x68 <= 1
 0 <= x69 <= 1
 0 <= x70 <= 1
 0 <= x71 <= 1
 0 <= x72 <= 1
 0 <= x73 <= 1
 0 <= x74 <= 1
 0 <= x75 <= 1
 0 <= x76 <= 1
 0 <= x77 <= 3
 0 <= x78 <= 12
 0 <= x79 <= 1
 0 <= x80 <= 1
 0 <= x81 <= 1
 0 <= x82 <= 1
 0 <= x83 <= 1
 0 <= x84 <= 1
 0 <= x85 <= 3
 0 <= x86 <= 12
Binaries
 x5  x6  x7  x8  x10  x12  x13  x14  x15  x16  x17  x19  x21  x22  x23  x24 
 x25  x26  x28  x30  x31  x32  x33  x34  x35  x37  x39  x40  x41  x45  x46 
 x47  x48  x49  x50  x51  x52  x53  x54  x55  x56  x57  x58  x59  x60  x61 
 x62  x65  x66  x67  x68  x69  x70  x71  x72  x73  x74  x75  x76  x79  x80 
 x81  x82  x83  x84 
Generals
 x1  x2  x3  x4  x9  x11  x18  x20  x27  x29  x36  x38  x42  x43  x44  x63 
 x64  x77  x78  x85  x86 
End
